p tw 24 161
0 1
0 2
0 13
0 22
0 18
0 3
1 2
1 3
1 4
1 5
1 6
1 19
1 16
1 8
1 10
1 12
1 13
1 22
1 18
1 20
1 21
1 17
2 4
2 10
2 9
2 19
2 13
2 20
2 22
2 7
2 18
2 21
2 3
3 4
3 7
3 8
3 5
3 9
3 11
3 12
3 16
3 17
3 19
3 20
3 13
3 22
3 18
3 21
4 10
4 14
4 18
4 20
4 8
4 22
4 5
4 7
4 15
4 21
5 6
5 9
5 15
5 17
5 19
5 16
5 18
5 23
5 7
5 12
5 10
5 20
5 22
5 8
6 16
6 17
6 11
6 18
6 9
6 21
6 19
6 22
6 8
6 12
6 14
7 8
7 10
7 11
7 9
7 22
7 21
7 23
7 15
7 18
8 17
8 18
8 13
8 19
8 10
8 22
8 14
8 15
8 16
8 20
9 13
9 17
9 21
9 19
9 10
9 12
9 22
10 11
10 13
10 20
10 12
10 14
10 17
10 21
10 19
10 22
11 12
11 18
11 13
11 20
12 20
12 14
13 14
13 15
13 19
13 20
13 17
13 22
13 23
14 15
14 18
14 21
14 16
15 17
15 22
15 23
15 16
15 19
16 17
16 21
16 19
16 20
17 18
17 19
17 21
17 22
17 20
17 23
18 21
18 23
18 20
18 19
19 20
19 22
19 23
20 22
20 23
21 23
22 23
